c uprop, v00.0, 
c reading from data/prog986.c.cnf
c done reading: 0.00269
p cnf 152 667
-54 -75 0
54 75 0
-69 75 0
69 -75 0
54 -65 0
-63 -65 0
-54 63 65 0
-54 -61 63 0
54 -61 -63 0
54 61 63 0
-54 61 -63 0
-60 65 0
-58 -60 0
58 60 -65 0
-56 58 -65 0
-56 -58 65 0
56 58 65 0
56 -58 -65 0
-55 60 0
-51 -55 0
51 55 -60 0
51 -60 -73 0
-51 60 -73 0
51 60 73 0
-51 -60 73 0
55 -62 0
-62 -71 0
-55 62 71 0
-55 71 -77 0
55 -71 -77 0
55 71 77 0
-55 -71 77 0
62 -78 0
-67 -78 0
-62 67 78 0
-62 67 -79 0
62 -67 -79 0
62 67 79 0
-62 -67 79 0
-75 80 0
75 -80 0
-63 -75 81 0
63 75 -81 0
63 -81 0
75 -81 0
63 -81 -82 0
75 -81 -82 0
-81 -82 0
-63 81 82 0
-75 81 82 0
63 75 -82 0
-58 -63 83 0
-58 -81 83 0
-63 -81 83 0
58 63 -83 0
58 81 -83 0
63 81 -83 0
58 -83 -84 0
63 -83 -84 0
81 -83 -84 0
-58 83 84 0
-63 83 84 0
-81 83 84 0
-58 -63 -81 84 0
58 63 81 -84 0
-51 -58 85 0
-51 -83 85 0
-58 -83 85 0
51 58 -85 0
51 83 -85 0
58 83 -85 0
51 -85 -86 0
58 -85 -86 0
83 -85 -86 0
-51 85 86 0
-58 85 86 0
-83 85 86 0
-51 -58 -83 86 0
51 58 83 -86 0
-51 -71 87 0
-71 -85 87 0
-51 -85 87 0
51 71 -87 0
71 85 -87 0
51 85 -87 0
71 -87 -88 0
51 -87 -88 0
85 -87 -88 0
-71 87 88 0
-51 87 88 0
-85 87 88 0
-51 -71 -85 88 0
51 71 85 -88 0
-67 -71 89 0
-67 -87 89 0
-71 -87 89 0
67 71 -89 0
67 87 -89 0
71 87 -89 0
67 -89 -90 0
71 -89 -90 0
87 -89 -90 0
-67 89 90 0
-71 89 90 0
-87 89 90 0
-67 -71 -87 90 0
67 71 87 -90 0
-50 67 0
-50 89 0
50 -67 -89 0
-67 -74 -89 0
67 -74 89 0
-67 74 89 0
67 74 -89 0
-57 80 0
57 -80 0
70 -82 0
-70 82 0
66 -75 -84 0
-66 75 84 0
-66 84 0
-66 75 0
-49 -66 84 0
-49 -66 75 0
-49 -66 0
49 66 -84 0
49 66 -75 0
-49 75 84 0
48 -63 -86 0
48 -66 -86 0
48 -63 -66 0
-48 63 86 0
-48 66 86 0
-48 63 66 0
-47 -48 86 0
-47 -48 63 0
-47 -48 66 0
47 48 -86 0
47 48 -63 0
47 48 -66 0
47 -63 -66 -86 0
-47 63 66 86 0
46 -58 -88 0
46 -48 -88 0
46 -48 -58 0
-46 58 88 0
-46 48 88 0
-46 48 58 0
-45 -46 88 0
-45 -46 58 0
-45 -46 48 0
45 46 -88 0
45 46 -58 0
45 46 -48 0
45 -48 -58 -88 0
-45 48 58 88 0
44 -51 -90 0
44 -46 -90 0
44 -46 -51 0
-44 51 90 0
-44 46 90 0
-44 46 51 0
-43 -44 90 0
-43 -44 51 0
-43 -44 46 0
43 44 -90 0
43 44 -51 0
43 44 -46 0
43 -46 -51 -90 0
-43 46 51 90 0
42 -71 -74 0
42 -44 -74 0
42 -44 -71 0
-42 71 74 0
-42 44 74 0
-42 44 71 0
-41 -42 74 0
-41 -42 71 0
-41 -42 44 0
41 42 -74 0
41 42 -71 0
41 42 -44 0
41 -44 -71 -74 0
-41 44 71 74 0
40 -50 -67 0
40 -42 -50 0
40 -42 -67 0
-40 50 67 0
-40 42 50 0
-40 42 67 0
-39 -40 50 0
-39 -40 67 0
-39 -40 42 0
39 40 -50 0
39 40 -67 0
39 40 -42 0
39 -42 -50 -67 0
-39 42 50 67 0
-38 47 0
38 -47 0
37 -45 0
-37 45 0
36 -43 -75 0
-36 43 75 0
-36 43 0
-36 75 0
-35 -36 43 0
-35 -36 75 0
-35 -36 0
35 36 -43 0
35 36 -75 0
-35 43 75 0
34 -41 -63 0
34 -36 -41 0
34 -36 -63 0
-34 41 63 0
-34 36 41 0
-34 36 63 0
-33 -34 41 0
-33 -34 63 0
-33 -34 36 0
33 34 -41 0
33 34 -63 0
33 34 -36 0
33 -36 -41 -63 0
-33 36 41 63 0
32 -39 -58 0
32 -34 -39 0
32 -34 -58 0
-32 39 58 0
-32 34 39 0
-32 34 58 0
-31 -32 39 0
-31 -32 58 0
-31 -32 34 0
31 32 -39 0
31 32 -58 0
31 32 -34 0
31 -34 -39 -58 0
-31 34 39 58 0
30 -40 -51 0
30 -32 -40 0
30 -32 -51 0
-30 40 51 0
-30 32 40 0
-30 32 51 0
-29 -30 40 0
-29 -30 51 0
-29 -30 32 0
29 30 -40 0
29 30 -51 0
29 30 -32 0
29 -32 -40 -51 0
-29 32 40 51 0
-28 71 0
-28 30 0
28 -30 -71 0
-27 -30 -71 0
-27 30 71 0
27 30 -71 0
27 -30 71 0
-26 67 0
-26 28 0
26 -28 -67 0
-28 -53 -67 0
28 -53 67 0
28 53 -67 0
-28 53 67 0
-57 -91 0
57 91 0
57 -92 0
-57 92 0
91 -93 0
-70 -93 0
70 -91 93 0
70 -91 -94 0
-70 91 -94 0
70 91 94 0
-70 -91 94 0
93 -95 0
-49 -95 0
49 -93 95 0
49 -93 -96 0
-49 93 -96 0
49 93 96 0
-49 -93 96 0
95 -97 0
-38 -97 0
38 -95 97 0
38 -95 -98 0
-38 95 -98 0
38 95 98 0
-38 -95 98 0
97 -99 0
-37 -99 0
37 -97 99 0
37 -97 -100 0
-37 97 -100 0
37 97 100 0
-37 -97 100 0
99 -101 0
-35 -101 0
35 -99 101 0
35 -99 -102 0
-35 99 -102 0
35 99 102 0
-35 -99 102 0
101 -103 0
-33 -103 0
33 -101 103 0
33 -101 -104 0
-33 101 -104 0
33 101 104 0
-33 -101 104 0
103 -105 0
-31 -105 0
31 -103 105 0
31 -103 -106 0
-31 103 -106 0
31 103 106 0
-31 -103 106 0
105 -107 0
-29 -107 0
29 -105 107 0
29 -105 -108 0
-29 105 -108 0
29 105 108 0
-29 -105 108 0
107 -109 0
-27 -109 0
27 -107 109 0
27 -107 -110 0
-27 107 -110 0
27 107 110 0
-27 -107 110 0
109 -111 0
-53 -111 0
53 -109 111 0
53 -109 -112 0
-53 109 -112 0
53 109 112 0
-53 -109 112 0
111 -113 0
-26 -113 0
26 -111 113 0
26 -111 -114 0
-26 111 -114 0
26 111 114 0
-26 -111 114 0
-115 -117 0
-117 -118 0
115 117 118 0
115 118 -120 0
-115 -118 -120 0
-115 118 120 0
115 -118 120 0
117 -121 0
-121 -122 0
-117 121 122 0
-117 122 -124 0
117 -122 -124 0
117 122 124 0
-117 -122 124 0
121 -125 0
-125 -126 0
-121 125 126 0
-121 126 -128 0
121 -126 -128 0
121 126 128 0
-121 -126 128 0
125 -129 0
-129 -130 0
-125 129 130 0
-125 130 -132 0
125 -130 -132 0
125 130 132 0
-125 -130 132 0
129 -133 0
-133 -134 0
-129 133 134 0
-76 -129 134 0
-76 129 -134 0
76 129 134 0
76 -129 -134 0
-64 133 0
-64 -136 0
64 -133 136 0
-59 -133 136 0
-59 133 -136 0
59 133 136 0
59 -133 -136 0
-52 64 0
-52 -138 0
52 -64 138 0
-64 -72 138 0
64 -72 -138 0
64 72 138 0
-64 72 -138 0
-68 122 0
-68 115 0
68 -115 -122 0
-115 -116 -122 0
115 -116 122 0
115 116 -122 0
-115 116 122 0
-118 119 -126 0
-68 119 -126 0
-68 -118 119 0
118 -119 126 0
68 -119 126 0
68 118 -119 0
-119 -123 126 0
118 -119 -123 0
68 -119 -123 0
119 123 -126 0
-118 119 123 0
-68 119 123 0
-68 -118 123 -126 0
68 118 -123 126 0
-122 127 -130 0
-119 127 -130 0
-119 -122 127 0
122 -127 130 0
119 -127 130 0
119 122 -127 0
-127 130 -131 0
122 -127 -131 0
119 -127 -131 0
127 -130 131 0
-122 127 131 0
-119 127 131 0
-119 -122 -130 131 0
119 122 130 -131 0
-126 -134 135 0
-127 -134 135 0
-126 -127 135 0
126 134 -135 0
127 134 -135 0
126 127 -135 0
134 -135 -137 0
126 -135 -137 0
127 -135 -137 0
-134 135 137 0
-126 135 137 0
-127 135 137 0
-126 -127 -134 137 0
126 127 134 -137 0
-130 -136 139 0
-135 -136 139 0
-130 -135 139 0
130 136 -139 0
135 136 -139 0
130 135 -139 0
136 -139 -140 0
130 -139 -140 0
135 -139 -140 0
-136 139 140 0
-130 139 140 0
-135 139 140 0
-130 -135 -136 140 0
130 135 136 -140 0
-134 -138 141 0
-138 -139 141 0
-134 -139 141 0
134 138 -141 0
138 139 -141 0
134 139 -141 0
138 -141 -142 0
134 -141 -142 0
139 -141 -142 0
-138 141 142 0
-134 141 142 0
-139 141 142 0
-134 -138 -139 142 0
134 138 139 -142 0
136 -143 0
141 -143 0
-136 -141 143 0
-136 -141 -144 0
136 141 -144 0
-136 141 144 0
136 -141 144 0
138 -145 0
143 -145 0
-138 -143 145 0
-138 -143 -146 0
138 143 -146 0
-138 143 146 0
138 -143 146 0
-115 -147 0
-118 -147 0
115 118 147 0
115 118 -148 0
-115 -118 -148 0
-115 118 148 0
115 -118 148 0
147 -149 0
-116 -149 0
116 -147 149 0
116 -147 -150 0
-116 147 -150 0
116 147 150 0
-116 -147 150 0
149 -151 0
-123 -151 0
123 -149 151 0
123 -149 -152 0
-123 149 -152 0
123 149 152 0
-123 -149 152 0
-25 151 0
-25 -131 0
25 131 -151 0
-24 131 -151 0
-24 -131 151 0
24 131 151 0
24 -131 -151 0
-23 25 0
-23 -137 0
23 -25 137 0
-22 -25 137 0
-22 25 -137 0
22 25 137 0
22 -25 -137 0
-21 23 0
-21 -140 0
21 -23 140 0
-20 -23 140 0
-20 23 -140 0
20 23 140 0
20 -23 -140 0
-19 21 0
-19 -142 0
19 -21 142 0
-18 -21 142 0
-18 21 -142 0
18 21 142 0
18 -21 -142 0
-17 19 0
-17 -144 0
17 -19 144 0
-16 -19 144 0
-16 19 -144 0
16 19 144 0
16 -19 -144 0
-15 17 0
-15 -146 0
15 -17 146 0
-14 -17 146 0
-14 17 -146 0
14 17 146 0
14 -17 -146 0
-13 15 0
-13 -145 0
13 -15 145 0
-12 -15 145 0
-12 15 -145 0
12 15 145 0
12 -15 -145 0
-11 57 0
-11 115 0
11 -57 -115 0
-57 115 0
57 -115 0
10 -70 -118 0
10 -11 -70 0
10 -11 -118 0
-10 70 118 0
-10 11 70 0
-10 11 118 0
-10 70 0
-10 118 0
-10 11 0
11 70 118 0
9 -49 -116 0
9 -10 -49 0
9 -10 -116 0
-9 49 116 0
-9 10 49 0
-9 10 116 0
-9 49 0
-9 116 0
-9 10 0
10 49 116 0
8 -38 -123 0
8 -9 -38 0
8 -9 -123 0
-8 38 123 0
-8 9 38 0
-8 9 123 0
8 -38 0
8 -123 0
8 -9 0
-9 -38 -123 0
7 -37 -131 0
7 -8 -37 0
7 -8 -131 0
-7 37 131 0
-7 8 37 0
-7 8 131 0
-7 37 0
-7 131 0
-7 8 0
8 37 131 0
6 -35 -137 0
6 -7 -35 0
6 -7 -137 0
-6 35 137 0
-6 7 35 0
-6 7 137 0
-6 35 0
-6 137 0
-6 7 0
7 35 137 0
5 -33 -140 0
5 -6 -33 0
5 -6 -140 0
-5 33 140 0
-5 6 33 0
-5 6 140 0
5 -33 0
5 -140 0
5 -6 0
-6 -33 -140 0
4 -31 -142 0
4 -5 -31 0
4 -5 -142 0
-4 31 142 0
-4 5 31 0
-4 5 142 0
4 -31 0
4 -142 0
4 -5 0
-5 -31 -142 0
3 -29 -144 0
3 -4 -29 0
3 -4 -144 0
-3 29 144 0
-3 4 29 0
-3 4 144 0
3 -29 0
3 -144 0
3 -4 0
-4 -29 -144 0
2 -27 -146 0
2 -3 -27 0
2 -3 -146 0
-2 27 146 0
-2 3 27 0
-2 3 146 0
2 -27 0
2 -146 0
2 -3 0
-3 -27 -146 0
1 -53 -145 0
1 -2 -53 0
1 -2 -145 0
-1 53 145 0
-1 2 53 0
-1 2 145 0
1 -53 0
1 -145 0
1 -2 0
-2 -53 -145 0
-1 -26 0
1 -26 0
-1 26 0
